eastwest = 9;
northsouth = 5;
cost = [|  1,  1, 1,  1, 1, 1, 1, 1,  1
 |  1,  1, 1, -1, 1, 1, 1, 1,  1
 |  1,  1, 1,  1, 1, 1, 1, 1,  1
 |  1,  1, 1,  1, 1, 1, 1, 1, -1
 | -1, -1, 1,  1, 1, 1, 1, 1, -1
 |];
ore = [| 0, 0, 5, 2, 4, 1, 0, 0, 0
 | 0, 4, 0, 0, 0, 0, 7, 0, 0
 | 2, 0, 0, 0, 7, 0, 6, 0, 5
 | 1, 4, 0, 3, 0, 0, 0, 6, 0
 | 0, 0, 7, 0, 0, 3, 0, 1, 0
 |];
budget = 16;
length = 16;
start = [(1,1),(9,5),(1,5),(9,1)];
